
A = 2;
T = 15;
X = 6;
Y = 6;
Z = 3;
building = array2d(0..5, 0..5,
                   [0, 0, 0, 0, 0, 0, 0, 1, 0, 0, 0, 0, 0, 0, 0, 0, 1, 0, 0, 0, 1, 1, 0, 0, 0, 0, 1, 1, 0, 0,
                    0, 0, 0, 0, 0, 0]);
